presolving:
(round 1, fast)       43798 del vars, 1410 del conss, 0 add conss, 1918 chg bounds, 2 chg sides, 2 chg coeffs, 0 upgd conss, 0 impls, 14599 clqs
(round 2, fast)       43918 del vars, 3088 del conss, 0 add conss, 1918 chg bounds, 2 chg sides, 2 chg coeffs, 0 upgd conss, 0 impls, 14599 clqs
   (0.6s) running MILP presolver
   (0.6s) MILP presolver found nothing
(round 3, exhaustive) 43918 del vars, 3088 del conss, 0 add conss, 1918 chg bounds, 2 chg sides, 2 chg coeffs, 12962 upgd conss, 0 impls, 14599 clqs
   (1.3s) probing: 51/12842 (0.4%) - 0 fixings, 0 aggregations, 0 implications, 0 bound changes
   (1.3s) probing aborted: 50/50 successive totally useless probings
   (1.5s) symmetry computation started: requiring (bin +, int -, cont +), (fixed: bin -, int +, cont -)
   (1.6s) symmetry computation finished: 14 generators found (max: 1500, log10 of symmetry group size: 4.2)
presolving (4 rounds: 4 fast, 2 medium, 2 exhaustive):
 43918 deleted vars, 3088 deleted constraints, 2 added constraints, 1918 tightened bounds, 0 added holes, 5 changed sides, 150 changed coefficients
 0 implications, 14599 cliques
presolved problem has 12842 variables (12842 bin, 0 int, 0 impl, 0 cont) and 12963 constraints
    119 constraints of type <knapsack>
  12844 constraints of type <setppc>
transformed objective value is always integral (scale: 5000)
Presolving Time: 1.47

 time | node  | left  |LP iter|LP it/n|mem/heur|mdpt |vars |cons |rows |cuts |sepa|confs|strbr|  dualbound   | primalbound  |  gap   | compl. 
p 1.9s|     1 |     0 |     0 |     - |  clique|   0 |  12k|  12k|  12k|   0 |  0 |   0 |   0 | 0.000000e+00 | 1.400000e+05 |    Inf | unknown
 16.4s|     1 |     0 | 16601 |     - |   348M |   0 |  12k|  13k|  12k|   0 |  0 |  95 |   0 | 7.342644e+04 | 1.400000e+05 |  90.67%| unknown
r16.5s|     1 |     0 | 16601 |     - |shifting|   0 |  12k|  13k|  12k|   0 |  0 |  95 |   0 | 7.342644e+04 | 9.000000e+04 |  22.57%| unknown
 18.1s|     1 |     0 | 16860 |     - |   351M |   0 |  12k|  13k|  12k|  15 |  1 |  95 |   0 | 7.342644e+04 | 9.000000e+04 |  22.57%| unknown
 18.4s|     1 |     0 | 17150 |     - |   354M |   0 |  12k|  13k|  12k|  30 |  2 |  95 |   0 | 7.342644e+04 | 9.000000e+04 |  22.57%| unknown
r18.4s|     1 |     0 | 17150 |     - |shifting|   0 |  12k|  13k|  12k|  30 |  2 |  95 |   0 | 7.342644e+04 | 8.500000e+04 |  15.76%| unknown
 18.6s|     1 |     0 | 17299 |     - |   355M |   0 |  12k|  13k|  13k|  44 |  3 |  95 |   0 | 7.342644e+04 | 8.500000e+04 |  15.76%| unknown
 18.8s|     1 |     0 | 17468 |     - |   358M |   0 |  12k|  13k|  13k|  59 |  4 |  95 |   0 | 7.342644e+04 | 8.500000e+04 |  15.76%| unknown
r18.9s|     1 |     0 | 17468 |     - |shifting|   0 |  12k|  13k|  13k|  59 |  4 |  95 |   0 | 7.342644e+04 | 8.000000e+04 |   8.95%| unknown
 19.0s|     1 |     0 | 17498 |     - |   361M |   0 |  12k|  13k|  13k|  73 |  5 |  95 |   0 | 7.342644e+04 | 8.000000e+04 |   8.95%| unknown
 19.1s|     1 |     0 | 17498 |     - |   361M |   0 |  12k|  13k|  12k|  73 |  5 |  95 |   0 | 7.342644e+04 | 8.000000e+04 |   8.95%| unknown
 19.3s|     1 |     0 | 17674 |     - |   365M |   0 |  12k|  12k|  12k|  88 |  6 |  95 |   0 | 7.342644e+04 | 8.000000e+04 |   8.95%| unknown
 19.5s|     1 |     0 | 17729 |     - |   366M |   0 |  12k|  12k|  12k| 102 |  7 |  95 |   0 | 7.342644e+04 | 8.000000e+04 |   8.95%| unknown
 19.9s|     1 |     0 | 18061 |     - |   370M |   0 |  12k|  12k|  12k| 117 |  8 |  95 |   0 | 7.342644e+04 | 8.000000e+04 |   8.95%| unknown
 20.0s|     1 |     0 | 18127 |     - |   373M |   0 |  12k|  12k|  12k| 131 |  9 |  95 |   0 | 7.342644e+04 | 8.000000e+04 |   8.95%| unknown
 time | node  | left  |LP iter|LP it/n|mem/heur|mdpt |vars |cons |rows |cuts |sepa|confs|strbr|  dualbound   | primalbound  |  gap   | compl. 
 20.5s|     1 |     0 | 18579 |     - |   374M |   0 |  12k|  12k|  12k| 145 | 10 |  95 |   0 | 7.342644e+04 | 8.000000e+04 |   8.95%| unknown
 20.7s|     1 |     0 | 18678 |     - |   375M |   0 |  12k|  12k|  12k| 159 | 11 |  95 |   0 | 7.342644e+04 | 8.000000e+04 |   8.95%| unknown
(run 1, node 1) restarting after 3498 global fixings of integer variables

(restart) converted 83 cuts from the global cut pool into linear constraints

presolving:
(round 1, fast)       3498 del vars, 27 del conss, 0 add conss, 0 chg bounds, 2 chg sides, 2232 chg coeffs, 0 upgd conss, 0 impls, 9950 clqs
   (24.6s) running MILP presolver
   (24.6s) MILP presolver found nothing
(round 2, exhaustive) 3498 del vars, 27 del conss, 0 add conss, 0 chg bounds, 2 chg sides, 2232 chg coeffs, 82 upgd conss, 0 impls, 10117 clqs
presolving (3 rounds: 3 fast, 2 medium, 2 exhaustive):
 3498 deleted vars, 32 deleted constraints, 0 added constraints, 0 tightened bounds, 0 added holes, 2 changed sides, 2290 changed coefficients
 0 implications, 10117 cliques
presolved problem has 9344 variables (9344 bin, 0 int, 0 impl, 0 cont) and 9579 constraints
    159 constraints of type <knapsack>
   9386 constraints of type <setppc>
      1 constraints of type <linear>
     33 constraints of type <logicor>
transformed objective value is always integral (scale: 5000)
Presolving Time: 1.65
transformed 1/4 original solutions to the transformed problem space

 time | node  | left  |LP iter|LP it/n|mem/heur|mdpt |vars |cons |rows |cuts |sepa|confs|strbr|  dualbound   | primalbound  |  gap   | compl. 
 33.5s|     1 |     0 | 60348 |     - |   383M |   0 |9344 |9579 |9545 |   0 |  0 |  95 |   0 | 7.342644e+04 | 8.000000e+04 |   8.95%| unknown
 34.0s|     1 |     0 | 60348 |     - |   383M |   0 |9344 |9579 |9342 |   0 |  0 |  95 |   0 | 7.342644e+04 | 8.000000e+04 |   8.95%| unknown
 34.7s|     1 |     0 | 60679 |     - |   385M |   0 |9344 |9376 |9351 |  15 |  1 |  95 |   0 | 7.342644e+04 | 8.000000e+04 |   8.95%| unknown
 34.8s|     1 |     0 | 60764 |     - |   386M |   0 |9344 |9370 |9366 |  30 |  2 |  95 |   0 | 7.342644e+04 | 8.000000e+04 |   8.95%| unknown
 35.0s|     1 |     0 | 60958 |     - |   387M |   0 |9344 |9370 |9380 |  44 |  3 |  95 |   0 | 7.342644e+04 | 8.000000e+04 |   8.95%| unknown
 35.3s|     1 |     0 | 61159 |     - |   388M |   0 |9344 |9370 |9395 |  59 |  4 |  95 |   0 | 7.342644e+04 | 8.000000e+04 |   8.95%| unknown
 35.5s|     1 |     0 | 61278 |     - |   388M |   0 |9344 |9370 |9409 |  73 |  5 |  95 |   0 | 7.342644e+04 | 8.000000e+04 |   8.95%| unknown
 35.7s|     1 |     0 | 61368 |     - |   390M |   0 |9344 |9370 |9424 |  88 |  6 |  95 |   0 | 7.342644e+04 | 8.000000e+04 |   8.95%| unknown
 35.8s|     1 |     0 | 61437 |     - |   391M |   0 |9344 |9370 |9438 | 102 |  7 |  95 |   0 | 7.342644e+04 | 8.000000e+04 |   8.95%| unknown
 36.0s|     1 |     0 | 61529 |     - |   392M |   0 |9344 |9370 |9453 | 117 |  8 |  95 |   0 | 7.342644e+04 | 8.000000e+04 |   8.95%| unknown
 36.2s|     1 |     0 | 61600 |     - |   393M |   0 |9344 |9370 |9468 | 132 |  9 |  95 |   0 | 7.342644e+04 | 8.000000e+04 |   8.95%| unknown
 36.4s|     1 |     0 | 61674 |     - |   394M |   0 |9344 |9370 |9402 | 147 | 10 |  95 |   0 | 7.342644e+04 | 8.000000e+04 |   8.95%| unknown
 36.5s|     1 |     0 | 61741 |     - |   395M |   0 |9344 |9370 |9417 | 162 | 11 |  95 |   0 | 7.342644e+04 | 8.000000e+04 |   8.95%| unknown
 40.2s|     1 |     2 | 74742 |     - |   395M |   0 |9344 |8909 |9417 | 162 | 11 |  95 |  11 | 7.342644e+04 | 8.000000e+04 |   8.95%| unknown
(run 2, node 1) restarting after 670 global fixings of integer variables

(restart) converted 83 cuts from the global cut pool into linear constraints

presolving:
(round 1, fast)       670 del vars, 6 del conss, 0 add conss, 0 chg bounds, 1 chg sides, 263 chg coeffs, 0 upgd conss, 0 impls, 9261 clqs
(round 2, exhaustive) 670 del vars, 7 del conss, 0 add conss, 0 chg bounds, 2 chg sides, 263 chg coeffs, 82 upgd conss, 0 impls, 9261 clqs
presolving (3 rounds: 3 fast, 2 medium, 2 exhaustive):
 670 deleted vars, 7 deleted constraints, 0 added constraints, 0 tightened bounds, 0 added holes, 2 changed sides, 315 changed coefficients
 0 implications, 9261 cliques
presolved problem has 8674 variables (8674 bin, 0 int, 0 impl, 0 cont) and 8985 constraints
    235 constraints of type <knapsack>
   8722 constraints of type <setppc>
      1 constraints of type <linear>
     27 constraints of type <logicor>
transformed objective value is always integral (scale: 5000)
Presolving Time: 1.82
transformed 1/4 original solutions to the transformed problem space

 time | node  | left  |LP iter|LP it/n|mem/heur|mdpt |vars |cons |rows |cuts |sepa|confs|strbr|  dualbound   | primalbound  |  gap   | compl. 
 47.3s|     1 |     0 | 89910 |     - |   398M |   0 |8674 |8985 |8957 |   0 |  0 |  95 |  11 | 7.342644e+04 | 8.000000e+04 |   8.95%| unknown
 47.7s|     1 |     0 | 89910 |     - |   398M |   0 |8674 |8985 |8841 |   0 |  0 |  95 |  11 | 7.342644e+04 | 8.000000e+04 |   8.95%| unknown
 48.3s|     1 |     0 | 90195 |     - |   400M |   0 |8674 |8869 |8851 |  15 |  1 |  95 |  11 | 7.342644e+04 | 8.000000e+04 |   8.95%| unknown
 48.4s|     1 |     0 | 90353 |     - |   401M |   0 |8674 |8864 |8865 |  29 |  2 |  95 |  11 | 7.342644e+04 | 8.000000e+04 |   8.95%| unknown
 48.6s|     1 |     0 | 90525 |     - |   402M |   0 |8674 |8864 |8879 |  43 |  3 |  95 |  11 | 7.342644e+04 | 8.000000e+04 |   8.95%| unknown
 48.7s|     1 |     0 | 90607 |     - |   405M |   0 |8674 |8864 |8892 |  56 |  4 |  95 |  11 | 7.342644e+04 | 8.000000e+04 |   8.95%| unknown
 48.9s|     1 |     0 | 90740 |     - |   406M |   0 |8674 |8864 |8906 |  70 |  5 |  95 |  11 | 7.342644e+04 | 8.000000e+04 |   8.95%| unknown
 49.0s|     1 |     0 | 90837 |     - |   409M |   0 |8674 |8864 |8919 |  83 |  6 |  95 |  11 | 7.342644e+04 | 8.000000e+04 |   8.95%| unknown
 49.2s|     1 |     0 | 90916 |     - |   410M |   0 |8674 |8864 |8934 |  98 |  7 |  95 |  11 | 7.342644e+04 | 8.000000e+04 |   8.95%| unknown
 49.3s|     1 |     0 | 90999 |     - |   410M |   0 |8674 |8864 |8949 | 113 |  8 |  95 |  11 | 7.342644e+04 | 8.000000e+04 |   8.95%| unknown
 49.4s|     1 |     0 | 91109 |     - |   413M |   0 |8674 |8864 |8964 | 128 |  9 |  95 |  11 | 7.342644e+04 | 8.000000e+04 |   8.95%| unknown
 49.6s|     1 |     0 | 91165 |     - |   414M |   0 |8674 |8864 |8979 | 143 | 10 |  95 |  11 | 7.342644e+04 | 8.000000e+04 |   8.95%| unknown
 49.6s|     1 |     0 | 91250 |     - |   414M |   0 |8674 |8864 |8993 | 157 | 11 |  95 |  11 | 7.342644e+04 | 8.000000e+04 |   8.95%| unknown
d50.9s|     1 |     0 | 99210 |     - |conflict|   0 |8674 |8367 |8993 |   0 | 11 |  95 |  11 | 7.342644e+04 | 7.500000e+04 |   2.14%| unknown
 50.9s|     1 |     0 | 99210 |     - |   415M |   0 |8674 |8367 |8993 | 157 | 11 |  95 |  11 | 7.500000e+04 | 7.500000e+04 |   0.00%| unknown

SCIP Status        : problem is solved [optimal solution found]
Solving Time (sec) : 50.89
Solving Nodes      : 1 (total of 3 nodes in 3 runs)
Primal Bound       : +7.50000000000000e+04 (5 solutions)
Dual Bound         : +7.50000000000000e+04
Gap                : 0.00 %
Solve Status: optimal
Solve Time: 50.92 seconds
